naphthalene crystal HC                  
   1.00000000000000     
     6.6817686346887610    0.0000000000000000   -4.5751027303014666
     0.0000000000000000    5.9530000686645508    0.0000000000000000
     0.0000000000000000    0.0000000000000000    8.6520004272460938
  16  20
Selective dynamics
Direct
  0.1349711309157526  0.0665773990230638  0.4733552196456568   T   T   T
  0.1870719975214467  0.3268665328743069  0.2799300506700668   T   T   T
  0.1486988366062257  0.4157136146740899  0.9814349491218849   T   T   T
  0.9654055245642609  0.6934701556416459  0.3417968479966181   T   T   T
  0.3650288690842476  0.5665773990230639  0.5266447803543501   T   T   T
  0.3129280024785533  0.8268665328743072  0.7200699493299336   T   T   T
  0.3513011633937744  0.9157136146740898  0.0185650508781150   T   T   T
  0.5345944754357391  0.1934701556416456  0.6582031520033815   T   T   T
  0.8650288690842476  0.9334226009769361  0.5266447803543501   T   T   T
  0.8129280024785466  0.6731334671256928  0.7200699493299336   T   T   T
  0.8513011633937748  0.5842863853259102  0.0185650508781150   T   T   T
  0.0345944754357389  0.3065298443583544  0.6582031520033815   T   T   T
  0.6349711309157524  0.4334226009769361  0.4733552196456568   T   T   T
  0.6870719975214534  0.1731334671256928  0.2799300506700668   T   T   T
  0.6486988366062252  0.0842863853259101  0.9814349491218849   T   T   T
  0.4654055245642611  0.8065298443583541  0.3417968479966181   T   T   T
  0.0845005424972694  0.0183622648737398  0.3307062303690193   T   T   T
  0.1139168596101421  0.1640239424589117  0.2236473325866273   T   T   T
  0.0481939719109114  0.1065943776139257  0.0374973055905153   T   T   T
  0.0751654999119388  0.2534078259424893  0.9236473007784674   T   T   T
  0.9890779346868078  0.8078545322962160  0.2565527363829892   T   T   T
  0.4154994575027307  0.5183622648737400  0.6692937696309810   T   T   T
  0.3860831403898579  0.6640239424589114  0.7763526674133722   T   T   T
  0.4518060280890887  0.6065943776139257  0.9625026944094849   T   T   T
  0.4248345000880612  0.7534078259424898  0.0763526992215328   T   T   T
  0.5109220653131922  0.3078545322962162  0.7434472636170109   T   T   T
  0.9154994575027308  0.9816377351262600  0.6692937696309810   T   T   T
  0.8860831403898581  0.8359760575410886  0.7763526674133722   T   T   T
  0.9518060280890883  0.8934056223860743  0.9625026944094849   T   T   T
  0.9248345000880616  0.7465921740575102  0.0763526992215328   T   T   T
  0.0109220653131915  0.1921454677037838  0.7434472636170109   T   T   T
  0.5845005424972692  0.4816377351262602  0.3307062303690193   T   T   T
  0.6139168596101419  0.3359760575410884  0.2236473325866273   T   T   T
  0.5481939719109117  0.3934056223860743  0.0374973055905153   T   T   T
  0.5751654999119384  0.2465921740575108  0.9236473007784674   T   T   T
  0.4890779346868084  0.6921454677037840  0.2565527363829892   T   T   T
 

